927865
11 35 5412
35 10 6355
10 1 6947
1 21 6578
21 7 17005
7 36 11794
36 29 16895
29 38 745
38 13 18675
13 28 6411
28 23 15996
23 34 31609
34 12 39715
12 33 3967
33 26 15458
26 39 17497
39 25 4093
25 31 7859
31 30 10287
30 37 941
37 20 17449
20 32 24202
32 5 3290
5 24 63665
24 22 45980
22 4 23621
4 19 26533
19 40 13572
40 18 18404
18 27 12606
27 2 15288
2 16 57771
16 3 71701
3 14 30026
14 17 42391
17 15 45489
15 9 71452
9 6 47658
6 8 34947
8 11 17581
